c instance by G2
c solution = 10101010111011000
c Known solution cost is 863 
p cnf 17 30
w 77 63 98 21 32 6 25 62 68 63 68 80 61 45 52 26 16
-1 8 -17 0
-12 16 -7 0
5 17 15 0
7 -8 12 0
-5 2 7 0
3 4 8 0
9 2 -11 0
1 -11 -10 0
-10 12 11 0
-1 -2 6 0
13 4 17 0
-13 -17 8 0
-15 8 -9 0
-14 11 -3 0
-9 17 1 0
-6 4 12 0
-12 -11 -17 0
5 8 12 0
-6 -15 -9 0
-16 -8 5 0
2 10 -5 0
-13 14 -3 0
-10 -6 -7 0
4 -10 13 0
7 12 -15 0
15 6 -16 0
-8 15 2 0
17 4 -6 0
15 -13 -4 0
16 -7 14 0
